(set-info :smt-lib-version 2.6)
(set-logic UF)
(set-info :source |
Generated by: David Deharbe, CLEARSY
Generated on: 2019-09-09
Generator: bxml;pog;pog2smt (Atelier B)
Application: B-method
Target solver: CVC4, Z3
|)
(set-info :license "https://creativecommons.org/licenses/by-nc/4.0/")
(set-info :category "industrial")
(set-info :status sat)
; Prelude
(declare-sort U 0)
(declare-fun |*i| (U U) U)
(declare-fun |+i| (U U) U)
(declare-fun |-i| (U U) U)
(declare-fun idiv (U U) U)
(declare-fun |*r| (U U) U)
(declare-fun |+r| (U U) U)
(declare-fun |-r| (U U) U)
(declare-fun rdiv (U U) U)
(declare-fun modulo (U U) U)
(declare-fun |<i| (U U) Bool)
(declare-fun |<=i| (U U) Bool)
(declare-fun |>i| (U U) Bool)
(declare-fun |>=i| (U U) Bool)
(declare-fun |<r| (U U) Bool)
(declare-fun |<=r| (U U) Bool)
(declare-fun |>r| (U U) Bool)
(declare-fun |>=r| (U U) Bool)
(declare-fun iuminus (U) U)
(declare-fun ruminus (U) U)
(declare-fun TRUE () U)
(declare-fun FALSE () U)
(assert (not (= TRUE FALSE)))
(declare-fun empty () U)
(declare-fun bool (Bool) U)
(declare-fun BOOL () U)
(declare-fun INT () U)
(declare-fun INTEGER () U)
(declare-fun NAT () U)
(declare-fun NAT1 () U)
(declare-fun NATURAL () U)
(declare-fun NATURAL1 () U)
(declare-fun FLOAT () U)
(declare-fun MaxInt () U)
(declare-fun MinInt () U)
(declare-fun |STRING| () U)
(declare-fun REAL () U)
(declare-fun set_prod (U U) U)
(declare-fun set_diff (U U) U)
(declare-fun mapplet (U U) U)
(declare-fun |**i| (U U) U)
(declare-fun |**r| (U U) U)
(declare-fun |+->| (U U) U)
(declare-fun |+->>| (U U) U)
(declare-fun |-->| (U U) U)
(declare-fun |-->>| (U U) U)
(declare-fun |<->| (U U) U)
(declare-fun |>+>| (U U) U)
(declare-fun |>->| (U U) U)
(declare-fun |>+>>| (U U) U)
(declare-fun |>->>| (U U) U)
(declare-fun |->| (U U) U)
(declare-fun interval (U U) U)
(declare-fun composition (U U) U)
(declare-fun binary_inter (U U) U)
(declare-fun restriction_head (U U) U)
(declare-fun semicolon (U U) U)
(declare-fun |<+| (U U) U)
(declare-fun |<-| (U U) U)
(declare-fun domain_subtraction (U U) U)
(declare-fun domain_restriction (U U) U)
(declare-fun |><| (U U) U)
(declare-fun parallel_product (U U) U)
(declare-fun binary_union (U U) U)
(declare-fun restriction_tail (U U) U)
(declare-fun concatenate (U U) U)
(declare-fun range_restriction (U U) U)
(declare-fun range_subtraction (U U) U)
(declare-fun image (U U) U)
(declare-fun apply (U U) U)
(declare-fun prj1 (U U) U)
(declare-fun prj2 (U U) U)
(declare-fun iterate (U U) U)
(declare-fun |const| (U U) U)
(declare-fun rank (U U) U)
(declare-fun father (U U) U)
(declare-fun subtree (U U) U)
(declare-fun arity (U U) U)
(declare-fun |+f| (U U) U)
(declare-fun |-f| (U U) U)
(declare-fun |*f| (U U) U)
(declare-fun |fdiv| (U U) U)
(declare-fun tbin (U U U) U)
(declare-fun son (U U U) U)
(declare-fun mem (U U) Bool)
(declare-fun subset (U U) Bool)
(declare-fun strict_subset (U U) Bool)
(declare-fun |<=f| (U U) Bool)
(declare-fun |<f| (U U) Bool)
(declare-fun |>=f| (U U) Bool)
(declare-fun |>f| (U U) Bool)
(declare-fun imax (U) U)
(declare-fun imin (U) U)
(declare-fun rmax (U) U)
(declare-fun rmin (U) U)
(declare-fun card (U) U)
(declare-fun dom (U) U)
(declare-fun ran (U) U)
(declare-fun POW (U) U)
(declare-fun POW1 (U) U)
(declare-fun FIN (U) U)
(declare-fun FIN1 (U) U)
(declare-fun union (U) U)
(declare-fun inter (U) U)
(declare-fun seq (U) U)
(declare-fun seq1 (U) U)
(declare-fun iseq (U) U)
(declare-fun iseq1 (U) U)
(declare-fun inverse (U) U)
(declare-fun size (U) U)
(declare-fun perm (U) U)
(declare-fun first (U) U)
(declare-fun last (U) U)
(declare-fun id (U) U)
(declare-fun closure (U) U)
(declare-fun closure1 (U) U)
(declare-fun tail (U) U)
(declare-fun front (U) U)
(declare-fun reverse (U) U)
(declare-fun rev (U) U)
(declare-fun conc (U) U)
(declare-fun succ (U) U)
(declare-fun pred (U) U)
(declare-fun rel (U) U)
(declare-fun fnc (U) U)
(declare-fun real (U) U)
(declare-fun floor (U) U)
(declare-fun ceiling (U) U)
(declare-fun tree (U) U)
(declare-fun btree (U) U)
(declare-fun top (U) U)
(declare-fun sons (U) U)
(declare-fun prefix (U) U)
(declare-fun postfix (U) U)
(declare-fun sizet (U) U)
(declare-fun mirror (U) U)
(declare-fun left (U) U)
(declare-fun right (U) U)
(declare-fun infix (U) U)
(declare-fun ubin (U) U)
(declare-fun SEQ (U) U)
(declare-fun SET (U) U)
; Opaque formulas
(declare-fun e207 () U)
(declare-fun e0 () U)
(declare-fun e88 () U)
(declare-fun e85 () U)
(declare-fun e87 () U)
(declare-fun g_s0_1 () U)
(declare-fun g_s1_2 () U)
(declare-fun g_s10_11 () U)
(declare-fun g_s100_103 () U)
(declare-fun g_s101_104 () U)
(declare-fun g_s102_105 () U)
(declare-fun g_s103_106 () U)
(declare-fun g_s104_107 () U)
(declare-fun g_s105_108 () U)
(declare-fun g_s106_109 () U)
(declare-fun g_s107_110 () U)
(declare-fun g_s108_111 () U)
(declare-fun g_s109_112 () U)
(declare-fun g_s11_12 () U)
(declare-fun g_s110_113 () U)
(declare-fun g_s111_114 () U)
(declare-fun g_s112_115 () U)
(declare-fun g_s113_116 () U)
(declare-fun g_s114_117 () U)
(declare-fun g_s115_118 () U)
(declare-fun g_s116_119 () U)
(declare-fun g_s117_120 () U)
(declare-fun g_s118_121 () U)
(declare-fun g_s119_122 () U)
(declare-fun g_s12_13 () U)
(declare-fun g_s120_123 () U)
(declare-fun g_s121_124 () U)
(declare-fun g_s122_125 () U)
(declare-fun g_s123_126 () U)
(declare-fun g_s124_127 () U)
(declare-fun g_s125_128 () U)
(declare-fun g_s126_129 () U)
(declare-fun g_s127_130 () U)
(declare-fun g_s128_131 () U)
(declare-fun g_s129_132 () U)
(declare-fun g_s13_14 () U)
(declare-fun g_s130_133 () U)
(declare-fun g_s131_134 () U)
(declare-fun g_s132_135 () U)
(declare-fun g_s133_136 () U)
(declare-fun g_s134_137 () U)
(declare-fun g_s135_138 () U)
(declare-fun g_s136_139 () U)
(declare-fun g_s137_140 () U)
(declare-fun g_s138_141 () U)
(declare-fun g_s139_142 () U)
(declare-fun g_s14_15 () U)
(declare-fun g_s140_143 () U)
(declare-fun g_s141_144 () U)
(declare-fun g_s142_145 () U)
(declare-fun g_s143_146 () U)
(declare-fun g_s144_147 () U)
(declare-fun g_s145_148 () U)
(declare-fun g_s146_149 () U)
(declare-fun g_s147_150 () U)
(declare-fun g_s148_151 () U)
(declare-fun g_s149_152 () U)
(declare-fun g_s15_16 () U)
(declare-fun g_s150_153 () U)
(declare-fun g_s151_154 () U)
(declare-fun g_s152_155 () U)
(declare-fun g_s153_156 () U)
(declare-fun g_s154_157 () U)
(declare-fun g_s155_158 () U)
(declare-fun g_s156_159 () U)
(declare-fun g_s157_160 () U)
(declare-fun g_s158_161 () U)
(declare-fun g_s159_162 () U)
(declare-fun g_s16_17 () U)
(declare-fun g_s160_163 () U)
(declare-fun g_s161_164 () U)
(declare-fun g_s162_165 () U)
(declare-fun g_s163_166 () U)
(declare-fun g_s164_167 () U)
(declare-fun g_s165_168 () U)
(declare-fun g_s166_169 () U)
(declare-fun g_s167_170 () U)
(declare-fun g_s168_171 () U)
(declare-fun g_s169_172 () U)
(declare-fun g_s17_18 () U)
(declare-fun g_s170_173 () U)
(declare-fun g_s171_174 () U)
(declare-fun g_s172_175 () U)
(declare-fun g_s173_176 () U)
(declare-fun g_s174_177 () U)
(declare-fun g_s175_178 () U)
(declare-fun g_s176_179 () U)
(declare-fun g_s177_180 () U)
(declare-fun g_s178_181 () U)
(declare-fun g_s179_182 () U)
(declare-fun g_s18_19 () U)
(declare-fun g_s180_183 () U)
(declare-fun g_s181_184 () U)
(declare-fun g_s182_185 () U)
(declare-fun g_s183_186 () U)
(declare-fun g_s184_187 () U)
(declare-fun g_s185_188 () U)
(declare-fun g_s186_189 () U)
(declare-fun g_s187_190 () U)
(declare-fun g_s188_191 () U)
(declare-fun g_s189_192 () U)
(declare-fun g_s19_20 () U)
(declare-fun g_s190_193 () U)
(declare-fun g_s191_194 () U)
(declare-fun g_s192_195 () U)
(declare-fun g_s193_196 () U)
(declare-fun g_s194_197 () U)
(declare-fun g_s195_198 () U)
(declare-fun g_s196_199 () U)
(declare-fun g_s197_200 () U)
(declare-fun g_s198_201 () U)
(declare-fun g_s199_202 () U)
(declare-fun g_s2_3 () U)
(declare-fun g_s20_21 () U)
(declare-fun g_s200_203 () U)
(declare-fun g_s201_204 () U)
(declare-fun g_s202_205 () U)
(declare-fun g_s203_206 () U)
(declare-fun g_s204_208 () U)
(declare-fun g_s205_209 () U)
(declare-fun g_s206_210 () U)
(declare-fun g_s207_211 () U)
(declare-fun g_s208_212 () U)
(declare-fun g_s209_213 () U)
(declare-fun g_s21_22 () U)
(declare-fun g_s210_214 () U)
(declare-fun g_s211_215 () U)
(declare-fun g_s212_216 () U)
(declare-fun g_s213_217 () U)
(declare-fun g_s214_218 () U)
(declare-fun g_s215_219 () U)
(declare-fun g_s216_220 () U)
(declare-fun g_s217_221 () U)
(declare-fun g_s218_222 () U)
(declare-fun g_s219_223 () U)
(declare-fun g_s22_23 () U)
(declare-fun g_s220_224 () U)
(declare-fun g_s221_225 () U)
(declare-fun g_s222_226 () U)
(declare-fun g_s223_227 () U)
(declare-fun g_s224_228 () U)
(declare-fun g_s225_229 () U)
(declare-fun g_s226_230 () U)
(declare-fun g_s227_231 () U)
(declare-fun g_s228_232 () U)
(declare-fun g_s229_233 () U)
(declare-fun g_s23_24 () U)
(declare-fun g_s230_234 () U)
(declare-fun g_s231_235 () U)
(declare-fun g_s232_236 () U)
(declare-fun g_s233_237 () U)
(declare-fun g_s234_238 () U)
(declare-fun g_s235_239 () U)
(declare-fun g_s236_240 () U)
(declare-fun g_s237_241 () U)
(declare-fun g_s238_242 () U)
(declare-fun g_s239_243 () U)
(declare-fun g_s24_25 () U)
(declare-fun g_s240_244 () U)
(declare-fun g_s241_245 () U)
(declare-fun g_s242_246 () U)
(declare-fun g_s243_247 () U)
(declare-fun g_s244_248 () U)
(declare-fun g_s245_249 () U)
(declare-fun g_s246_250 () U)
(declare-fun g_s247_251 () U)
(declare-fun g_s248_252 () U)
(declare-fun g_s249_253 () U)
(declare-fun g_s25_26 () U)
(declare-fun g_s250_254 () U)
(declare-fun g_s251_255 () U)
(declare-fun g_s252_256 () U)
(declare-fun g_s253_257 () U)
(declare-fun g_s254_258 () U)
(declare-fun g_s255_259 () U)
(declare-fun g_s256_260 () U)
(declare-fun g_s257_261 () U)
(declare-fun g_s258_262 () U)
(declare-fun g_s259_263 () U)
(declare-fun g_s26_27 () U)
(declare-fun g_s260_264 () U)
(declare-fun g_s261_265 () U)
(declare-fun g_s262_266 () U)
(declare-fun g_s263_267 () U)
(declare-fun g_s264_268 () U)
(declare-fun g_s265_269 () U)
(declare-fun g_s266_270 () U)
(declare-fun g_s267_271 () U)
(declare-fun g_s268_272 () U)
(declare-fun g_s269_273 () U)
(declare-fun g_s27_28 () U)
(declare-fun g_s270_274 () U)
(declare-fun g_s271_275 () U)
(declare-fun g_s272_276 () U)
(declare-fun g_s273_277 () U)
(declare-fun g_s274_278 () U)
(declare-fun g_s275_279 () U)
(declare-fun g_s276_280 () U)
(declare-fun g_s277_281 () U)
(declare-fun g_s278_282 () U)
(declare-fun g_s279_283 () U)
(declare-fun g_s28_29 () U)
(declare-fun g_s280_284 () U)
(declare-fun g_s281_285 () U)
(declare-fun g_s282_286 () U)
(declare-fun g_s283_287 () U)
(declare-fun g_s284_288 () U)
(declare-fun g_s285_289 () U)
(declare-fun g_s286_290 () U)
(declare-fun g_s287_291 () U)
(declare-fun g_s288_292 () U)
(declare-fun g_s289_293 () U)
(declare-fun g_s29_30 () U)
(declare-fun g_s290_294 () U)
(declare-fun g_s291_295 () U)
(declare-fun g_s292_296 () U)
(declare-fun g_s293_297 () U)
(declare-fun g_s294_298 () U)
(declare-fun g_s295_299 () U)
(declare-fun g_s296_300 () U)
(declare-fun g_s297_301 () U)
(declare-fun g_s298_302 () U)
(declare-fun g_s299_303 () U)
(declare-fun g_s3_4 () U)
(declare-fun g_s30_31 () U)
(declare-fun g_s300_304 () U)
(declare-fun g_s301_305 () U)
(declare-fun g_s302_306 () U)
(declare-fun g_s303_307 () U)
(declare-fun g_s304_308 () U)
(declare-fun g_s305_309 () U)
(declare-fun g_s306_310 () U)
(declare-fun g_s307_311 () U)
(declare-fun g_s308_312 () U)
(declare-fun g_s309_313 () U)
(declare-fun g_s31_32 () U)
(declare-fun g_s310_314 () U)
(declare-fun g_s311_315 () U)
(declare-fun g_s312_316 () U)
(declare-fun g_s313_317 () U)
(declare-fun g_s314_318 () U)
(declare-fun g_s315_319 () U)
(declare-fun g_s316_320 () U)
(declare-fun g_s317_321 () U)
(declare-fun g_s318_322 () U)
(declare-fun g_s319_323 () U)
(declare-fun g_s32_33 () U)
(declare-fun g_s320_324 () U)
(declare-fun g_s321_325 () U)
(declare-fun g_s322_326 () U)
(declare-fun g_s324_327 () U)
(declare-fun g_s325_328 () U)
(declare-fun g_s326_329 () U)
(declare-fun g_s327_330 () U)
(declare-fun g_s328_331 () U)
(declare-fun g_s33_34 () U)
(declare-fun g_s330_332 () U)
(declare-fun g_s331_333 () U)
(declare-fun g_s332_334 () U)
(declare-fun g_s333_335 () U)
(declare-fun g_s334_336 () U)
(declare-fun g_s335_337 () U)
(declare-fun g_s336_338 () U)
(declare-fun g_s337_339 () U)
(declare-fun g_s338_340 () U)
(declare-fun g_s339_341 () U)
(declare-fun g_s34_35 () U)
(declare-fun g_s340_342 () U)
(declare-fun g_s341_343 () U)
(declare-fun g_s342_344 () U)
(declare-fun g_s343_345 () U)
(declare-fun g_s344_346 () U)
(declare-fun g_s345_347 () U)
(declare-fun g_s346_348 () U)
(declare-fun g_s347_349 () U)
(declare-fun g_s348_350 () U)
(declare-fun g_s349_351 () U)
(declare-fun g_s35_36 () U)
(declare-fun g_s350_352 () U)
(declare-fun g_s351_353 () U)
(declare-fun g_s36_37 () U)
(declare-fun g_s37_38 () U)
(declare-fun g_s38_39 () U)
(declare-fun g_s39_40 () U)
(declare-fun g_s4_5 () U)
(declare-fun g_s40_41 () U)
(declare-fun g_s41_42 () U)
(declare-fun g_s42_43 () U)
(declare-fun g_s43_44 () U)
(declare-fun g_s44_45 () U)
(declare-fun g_s45_46 () U)
(declare-fun g_s46_47 () U)
(declare-fun g_s47_48 () U)
(declare-fun g_s48_49 () U)
(declare-fun g_s49_50 () U)
(declare-fun g_s5_6 () U)
(declare-fun g_s50_51 () U)
(declare-fun g_s51_52 () U)
(declare-fun g_s52_53 () U)
(declare-fun g_s53_54 () U)
(declare-fun g_s54_55 () U)
(declare-fun g_s55_56 () U)
(declare-fun g_s57_57 () U)
(declare-fun g_s58_58 () U)
(declare-fun g_s59_59 () U)
(declare-fun g_s6_7 () U)
(declare-fun g_s60_60 () U)
(declare-fun g_s61_61 () U)
(declare-fun g_s62_62 () U)
(declare-fun g_s63_63 () U)
(declare-fun g_s64_64 () U)
(declare-fun g_s65_65 () U)
(declare-fun g_s66_66 () U)
(declare-fun g_s67_67 () U)
(declare-fun g_s68_68 () U)
(declare-fun g_s69_69 () U)
(declare-fun g_s7_8 () U)
(declare-fun g_s70_70 () U)
(declare-fun g_s71_71 () U)
(declare-fun g_s72_72 () U)
(declare-fun g_s73_73 () U)
(declare-fun g_s74_74 () U)
(declare-fun g_s75_75 () U)
(declare-fun g_s76_76 () U)
(declare-fun g_s77_77 () U)
(declare-fun g_s78_78 () U)
(declare-fun g_s79_79 () U)
(declare-fun g_s8_9 () U)
(declare-fun g_s80_80 () U)
(declare-fun g_s81_81 () U)
(declare-fun g_s82_82 () U)
(declare-fun g_s83_83 () U)
(declare-fun g_s84_84 () U)
(declare-fun g_s85_86 () U)
(declare-fun g_s86_89 () U)
(declare-fun g_s87_90 () U)
(declare-fun g_s88_91 () U)
(declare-fun g_s89_92 () U)
(declare-fun g_s9_10 () U)
(declare-fun g_s90_93 () U)
(declare-fun g_s91_94 () U)
(declare-fun g_s92_95 () U)
(declare-fun g_s93_96 () U)
(declare-fun g_s94_97 () U)
(declare-fun g_s95_98 () U)
(declare-fun g_s96_99 () U)
(declare-fun g_s97_100 () U)
(declare-fun g_s98_101 () U)
(declare-fun g_s99_102 () U)
; Defines
(define-fun |def_B definitions| () Bool (and (= NAT (interval e0 MaxInt)) (= INT (interval MinInt MaxInt))))
(define-fun |def_ctx| () Bool (and (= g_s0_1 (SET (mapplet g_s2_3 g_s1_2))) (not (= g_s3_4 empty)) (not (= g_s4_5 empty)) (not (= g_s5_6 empty)) (not (= g_s6_7 empty)) (not (= g_s7_8 empty)) (not (= g_s8_9 empty)) (= g_s9_10 (SET (mapplet g_s11_12 g_s10_11))) (= g_s12_13 (SET (mapplet g_s28_29 (mapplet g_s27_28 (mapplet g_s26_27 (mapplet g_s25_26 (mapplet g_s24_25 (mapplet g_s23_24 (mapplet g_s22_23 (mapplet g_s21_22 (mapplet g_s20_21 (mapplet g_s19_20 (mapplet g_s18_19 (mapplet g_s17_18 (mapplet g_s16_17 (mapplet g_s15_16 (mapplet g_s14_15 g_s13_14))))))))))))))))) (not (= g_s29_30 empty)) (not (= g_s30_31 empty)) (not (= g_s31_32 empty)) (not (= g_s32_33 empty)) (not (= g_s33_34 empty)) (not (= g_s34_35 empty)) (not (= g_s35_36 empty)) (not (= g_s36_37 empty)) (not (= g_s37_38 empty)) (not (= g_s38_39 empty)) (not (= g_s39_40 empty)) (not (= g_s40_41 empty)) (not (= g_s41_42 empty)) (not (= g_s42_43 empty)) (not (= g_s43_44 empty)) (= g_s44_45 MaxInt) (= g_s45_46 MinInt) (mem g_s46_47 g_s6_7) (mem g_s47_48 g_s6_7) (mem g_s48_49 g_s6_7) (not (= g_s47_48 g_s46_47)) (not (= g_s48_49 g_s46_47)) (not (= g_s48_49 g_s47_48)) (mem g_s49_50 g_s6_7) (mem g_s50_51 g_s6_7) (not (= g_s49_50 g_s46_47)) (not (= g_s50_51 g_s46_47)) (not (= g_s50_51 g_s49_50)) (subset g_s51_52 g_s7_8) (mem g_s52_53 g_s7_8) (= (set_diff g_s7_8 (SET g_s52_53)) g_s51_52) (not (mem g_s52_53 g_s51_52)) (mem g_s53_54 g_s8_9) (mem g_s54_55 (|-->| g_s7_8 g_s8_9)) (mem g_s55_56 (|-->| g_s8_9 g_s7_8)) (= (apply g_s54_55 g_s52_53) g_s53_54) (= g_s55_56 (inverse g_s54_55)) (forall ((l_s56 U)) (=> (and (mem l_s56 g_s51_52) (not (= l_s56 g_s52_53))) (not (= (apply g_s54_55 l_s56) g_s53_54)))) (subset g_s57_57 g_s3_4) (mem g_s58_58 g_s3_4) (not (mem g_s58_58 g_s57_57)) (subset g_s59_59 g_s4_5) (mem g_s60_60 g_s4_5) (not (mem g_s60_60 g_s59_59)) (= g_s61_61 (SET (mapplet (mapplet g_s2_3 g_s1_2) (mapplet g_s1_2 g_s2_3)))) (= g_s62_62 (SET (mapplet (mapplet g_s50_51 g_s2_3) (mapplet g_s49_50 g_s1_2)))) (mem g_s63_63 (|-->| g_s6_7 NAT)) (subset g_s64_64 g_s29_30) (subset g_s65_65 g_s30_31) (subset g_s66_66 g_s36_37) (subset g_s67_67 g_s31_32) (mem g_s68_68 g_s31_32) (mem g_s68_68 g_s67_67) (mem g_s69_69 g_s31_32) (not (mem g_s69_69 g_s67_67)) (subset g_s70_70 g_s32_33) (mem g_s71_71 g_s32_33) (mem g_s71_71 g_s70_70) (mem g_s72_72 g_s32_33) (not (mem g_s72_72 g_s70_70)) (subset g_s73_73 g_s33_34) (mem g_s74_74 g_s33_34) (mem g_s74_74 g_s73_73) (mem g_s75_75 g_s33_34) (not (mem g_s75_75 g_s73_73)) (subset g_s76_76 g_s34_35) (mem g_s77_77 g_s34_35) (mem g_s77_77 g_s76_76) (mem g_s78_78 g_s34_35) (not (mem g_s78_78 g_s76_76)) (subset g_s79_79 g_s35_36) (mem g_s80_80 g_s29_30) (not (mem g_s80_80 g_s64_64)) (mem g_s81_81 g_s30_31) (not (mem g_s81_81 g_s65_65)) (subset g_s82_82 g_s37_38) (mem g_s83_83 g_s37_38) (not (mem g_s83_83 g_s82_82)) (mem g_s84_84 g_s37_38) (mem g_s84_84 g_s82_82) (= g_s85_86 (SET (mapplet e85 e0))) (= g_s86_89 (interval e88 e87)) (mem g_s87_90 (perm g_s64_64)) (|>=i| (size g_s87_90) e88) (|<i| (size g_s87_90) MaxInt) (mem g_s88_91 (perm g_s65_65)) (|>=i| (size g_s88_91) e88) (|<i| (size g_s88_91) MaxInt) (mem g_s89_92 (|>->>| g_s65_65 g_s64_64)) (= g_s89_92 (composition (inverse g_s88_91) g_s87_90)) (mem g_s90_93 (perm g_s67_67)) (|<i| (size g_s90_93) MaxInt) (mem g_s91_94 (perm g_s70_70)) (|<i| (size g_s91_94) MaxInt) (mem g_s92_95 (|>->>| g_s67_67 g_s70_70)) (= g_s92_95 (composition (inverse g_s90_93) g_s91_94)) (mem g_s93_96 (perm g_s73_73)) (|<i| (size g_s93_96) MaxInt) (mem g_s94_97 (perm g_s76_76)) (|<i| (size g_s94_97) MaxInt) (mem g_s95_98 (|>->>| g_s76_76 g_s73_73)) (= g_s95_98 (composition (inverse g_s94_97) g_s93_96)) (mem g_s96_99 (perm g_s66_66)) (|<i| (size g_s96_99) MaxInt) (mem g_s97_100 (perm g_s79_79)) (|<i| (size g_s97_100) MaxInt) (mem g_s98_101 (perm g_s82_82)) (= g_s99_102 (|-->| g_s31_32 g_s33_34)) (mem g_s100_103 g_s99_102) (= g_s100_103 (set_prod g_s31_32 (SET g_s75_75))) (= g_s101_104 (|-->| g_s34_35 g_s37_38)) (mem g_s102_105 g_s101_104) (= g_s102_105 (set_prod g_s34_35 (SET g_s83_83))) (= g_s103_106 (|-->| g_s37_38 g_s37_38)) (mem g_s104_107 g_s103_106) (= g_s104_107 (set_prod g_s37_38 (SET g_s83_83))) (= g_s105_108 (|-->| g_s37_38 g_s32_33)) (mem g_s106_109 g_s105_108) (= g_s106_109 (set_prod g_s37_38 (SET g_s72_72))) (= g_s107_110 (|-->| g_s29_30 g_s42_43)) (mem g_s108_111 g_s107_110) (= g_s109_112 (|-->| g_s29_30 g_s29_30)) (mem g_s110_113 g_s109_112) (= g_s110_113 (set_prod g_s29_30 (SET g_s80_80))) (= g_s111_114 (|-->| g_s30_31 g_s30_31)) (mem g_s112_115 g_s111_114) (= g_s112_115 (set_prod g_s30_31 (SET g_s81_81))) (= g_s113_116 (|-->| g_s30_31 g_s29_30)) (mem g_s114_117 g_s113_116) (= g_s114_117 (set_prod g_s30_31 (SET g_s80_80))) (= g_s115_118 (|-->| g_s30_31 g_s32_33)) (mem g_s116_119 g_s115_118) (= g_s116_119 (set_prod g_s30_31 (SET g_s72_72))) (= g_s117_120 (|-->| g_s35_36 g_s29_30)) (mem g_s118_121 g_s117_120) (= g_s118_121 (set_prod g_s35_36 (SET g_s80_80))) (= g_s119_122 (|-->| g_s35_36 g_s33_34)) (mem g_s120_123 g_s119_122) (= g_s120_123 (set_prod g_s35_36 (SET g_s75_75))) (= g_s121_124 (|-->| g_s35_36 g_s43_44)) (mem g_s122_125 g_s121_124) (= g_s123_126 (|-->| g_s33_34 g_s33_34)) (mem g_s124_127 g_s123_126) (= g_s124_127 (set_prod g_s33_34 (SET g_s75_75))) (= g_s125_128 (|-->| g_s34_35 g_s33_34)) (mem g_s126_129 g_s125_128) (= g_s126_129 (set_prod g_s34_35 (SET g_s75_75))) (= g_s127_130 (|-->| g_s34_35 g_s34_35)) (mem g_s128_131 g_s127_130) (= g_s128_131 (set_prod g_s34_35 (SET g_s78_78))) (= g_s129_132 (|-->| g_s32_33 g_s31_32)) (mem g_s130_133 g_s129_132) (= g_s130_133 (set_prod g_s32_33 (SET g_s69_69))) (= g_s131_134 (|-->| g_s34_35 INT)) (mem g_s132_135 g_s131_134) (= g_s132_135 (set_prod g_s34_35 (SET e0))) (= g_s133_136 (|-->| (dom g_s87_90) g_s29_30)) (mem g_s134_137 g_s133_136) (= g_s135_138 (|-->| (dom g_s88_91) g_s30_31)) (mem g_s136_139 g_s135_138) (= g_s137_140 (|-->| (dom g_s87_90) g_s41_42)) (mem g_s138_141 g_s137_140) (= g_s139_142 (|-->| (dom g_s90_93) g_s31_32)) (mem g_s140_143 g_s139_142) (= g_s141_144 (|-->| (dom g_s91_94) g_s32_33)) (mem g_s142_145 g_s141_144) (= g_s143_146 (|-->| (dom g_s93_96) g_s33_34)) (mem g_s144_147 g_s143_146) (= g_s145_148 (|-->| (dom g_s94_97) g_s34_35)) (mem g_s146_149 g_s145_148) (= g_s147_150 (|-->| (dom g_s98_101) g_s37_38)) (mem g_s148_151 g_s147_150) (= g_s149_152 (|-->| g_s33_34 BOOL)) (= g_s150_153 (|-->| g_s33_34 NAT)) (mem g_s151_154 g_s149_152) (= g_s151_154 (set_prod g_s33_34 (SET FALSE))) (mem g_s152_155 g_s150_153) (= g_s153_156 (|-->| g_s34_35 BOOL)) (mem g_s154_157 g_s153_156) (= g_s154_157 (set_prod g_s34_35 (SET FALSE))) (= g_s155_158 (|-->| g_s33_34 g_s31_32)) (mem g_s156_159 g_s155_158) (= g_s157_160 (|-->| g_s34_35 g_s32_33)) (mem g_s158_161 g_s157_160) (= g_s158_161 (set_prod g_s34_35 (SET g_s72_72))) (= g_s159_162 (|-->| g_s33_34 g_s43_44)) (mem g_s160_163 g_s159_162) (= g_s161_164 (|-->| g_s33_34 g_s9_10)) (mem g_s162_165 g_s161_164) (= g_s163_166 (|-->| g_s34_35 g_s12_13)) (mem g_s164_167 g_s163_166) (= g_s164_167 (set_prod g_s34_35 (SET g_s13_14))) (= g_s165_168 (|-->| g_s30_31 g_s3_4)) (mem g_s166_169 g_s165_168) (= g_s166_169 (set_prod g_s30_31 (SET g_s58_58))) (= g_s167_170 (|-->| g_s3_4 NAT)) (= g_s168_171 (|-->| g_s31_32 g_s41_42)) (mem g_s169_172 g_s168_171) (= g_s170_173 (|-->| g_s31_32 g_s29_30)) (mem g_s171_174 g_s170_173) (= g_s172_175 (|-->| g_s32_33 g_s30_31)) (mem g_s173_176 g_s172_175) (= g_s173_176 (set_prod g_s32_33 (SET g_s81_81))) (= g_s174_177 (|-->| g_s32_33 g_s34_35)) (mem g_s175_178 g_s174_177) (= g_s175_178 (set_prod g_s32_33 (SET g_s78_78))) (= g_s176_179 (|-->| g_s32_33 g_s32_33)) (mem g_s177_180 g_s176_179) (= g_s177_180 (set_prod g_s32_33 (SET g_s72_72))) (mem g_s178_181 NAT1) (|<i| g_s178_181 MaxInt) (mem g_s179_182 NAT1) (|<i| g_s179_182 MaxInt) (mem g_s180_183 NAT1) (|<i| g_s180_183 MaxInt) (mem g_s181_184 NAT) (|<i| g_s181_184 MaxInt) (mem g_s182_185 NAT) (|<i| g_s182_185 MaxInt) (mem g_s183_186 NAT) (|<i| g_s183_186 MaxInt) (mem g_s184_187 NAT) (|<i| g_s184_187 MaxInt) (= g_s185_188 (|-->| g_s31_32 (|-->| (interval e88 g_s178_181) g_s33_34))) (mem g_s186_189 g_s185_188) (= g_s187_190 (|-->| (interval e88 g_s179_182) g_s34_35)) (mem g_s188_191 g_s187_190) (= g_s189_192 (|-->| (interval e88 g_s181_184) g_s34_35)) (mem g_s190_193 g_s189_192) (= g_s191_194 (|-->| (interval e88 g_s184_187) g_s30_31)) (mem g_s192_195 g_s191_194) (= g_s193_196 (|-->| (interval e88 g_s182_185) g_s32_33)) (mem g_s194_197 g_s193_196) (= g_s195_198 (|-->| (interval e88 g_s183_186) g_s34_35)) (mem g_s196_199 g_s195_198) (= g_s197_200 (|-->| (interval e88 g_s183_186) g_s32_33)) (mem g_s198_201 g_s197_200) (= g_s199_202 (|-->| g_s31_32 NAT)) (mem g_s200_203 g_s199_202) (= g_s200_203 (set_prod g_s31_32 (SET e0))) (= g_s201_204 (|-->| g_s32_33 INT)) (= g_s202_205 (|-->| g_s32_33 BOOL)) (mem g_s203_206 g_s201_204) (= g_s203_206 (set_prod g_s32_33 (SET e207))) (mem g_s204_208 g_s202_205) (= g_s204_208 (set_prod g_s32_33 (SET FALSE))) (mem g_s205_209 NAT1) (|<=i| g_s205_209 (size g_s90_93)) (mem g_s206_210 NAT1) (|<=i| g_s206_210 (size g_s91_94)) (= g_s207_211 (|-->| g_s29_30 (|-->| (interval e88 g_s205_209) g_s31_32))) (mem g_s208_212 g_s207_211) (= g_s209_213 (|-->| g_s29_30 INT)) (mem g_s210_214 g_s209_213) (= g_s210_214 (set_prod g_s29_30 (SET e0))) (= g_s211_215 (|-->| g_s30_31 INT)) (mem g_s212_216 g_s211_215) (= g_s212_216 (set_prod g_s30_31 (SET e0))) (= g_s213_217 (id g_s85_86)) (mem g_s214_218 NAT1) (|<i| g_s214_218 MaxInt) (subset g_s215_219 g_s38_39) (mem g_s216_220 g_s38_39) (mem g_s216_220 g_s215_219) (mem g_s217_221 g_s38_39) (not (mem g_s217_221 g_s215_219)) (subset g_s218_222 g_s39_40) (mem g_s219_223 g_s39_40) (subset g_s220_224 g_s40_41) (mem g_s221_225 g_s40_41) (mem g_s221_225 g_s220_224) (mem g_s222_226 g_s40_41) (not (mem g_s222_226 g_s220_224)) (subset g_s223_227 g_s41_42) (mem g_s224_228 g_s41_42) (subset g_s225_229 g_s42_43) (mem g_s226_230 g_s42_43) (mem g_s226_230 g_s225_229) (mem g_s227_231 g_s42_43) (not (mem g_s227_231 g_s225_229)) (subset g_s228_232 g_s43_44) (mem g_s229_233 g_s43_44) (not (mem g_s229_233 g_s228_232)) (mem g_s230_234 (perm g_s215_219)) (|<i| (size g_s230_234) MaxInt) (mem g_s231_235 (perm g_s225_229)) (|<i| (size g_s231_235) MaxInt) (|<=i| e88 (size g_s231_235)) (mem g_s232_236 (perm g_s220_224)) (|<i| (size g_s232_236) MaxInt) (mem g_s233_237 (perm g_s223_227)) (|<i| (size g_s233_237) MaxInt) (mem g_s234_238 (perm g_s228_232)) (|<i| (size g_s234_238) MaxInt) (mem g_s235_239 (perm g_s218_222)) (|<i| (size g_s235_239) MaxInt) (= g_s236_240 (|-->| g_s38_39 INT)) (= g_s237_241 (|-->| g_s38_39 g_s6_7)) (= g_s238_242 (|-->| g_s38_39 g_s38_39)) (= g_s239_243 (|-->| g_s38_39 g_s0_1)) (= g_s240_244 (|-->| g_s38_39 g_s42_43)) (= g_s241_245 (|-->| g_s38_39 g_s40_41)) (mem g_s242_246 g_s236_240) (= g_s242_246 (set_prod g_s38_39 (SET e0))) (mem g_s243_247 g_s236_240) (= g_s243_247 (set_prod g_s38_39 (SET e88))) (mem g_s244_248 g_s237_241) (mem g_s245_249 g_s238_242) (mem g_s246_250 g_s239_243) (mem g_s247_251 g_s240_244) (mem g_s248_252 g_s241_245) (= g_s248_252 (set_prod g_s38_39 (SET g_s222_226))) (= g_s249_253 (|-->| g_s39_40 INT)) (= g_s250_254 (|-->| g_s39_40 BOOL)) (= g_s251_255 (|-->| g_s39_40 g_s6_7)) (= g_s252_256 (|-->| g_s39_40 g_s38_39)) (= g_s253_257 (|-->| g_s39_40 g_s39_40)) (= g_s254_258 (|-->| (dom g_s235_239) g_s6_7)) (mem g_s255_259 g_s249_253) (mem g_s256_260 g_s250_254) (mem g_s257_261 g_s251_255) (mem g_s258_262 g_s252_256) (mem g_s259_263 g_s253_257) (mem g_s260_264 g_s254_258) (= g_s261_265 (|-->| g_s40_41 g_s6_7)) (= g_s262_266 (|-->| g_s40_41 BOOL)) (= g_s263_267 (|-->| g_s40_41 INT)) (= g_s264_268 (|-->| g_s40_41 g_s38_39)) (mem g_s265_269 g_s261_265) (mem g_s266_270 g_s262_266) (mem g_s267_271 g_s263_267) (mem g_s268_272 g_s263_267) (= g_s267_271 (set_prod g_s40_41 (SET e0))) (= g_s268_272 (set_prod g_s40_41 (SET e88))) (mem g_s269_273 g_s264_268) (= (ran g_s269_273) (SET g_s217_221)) (= g_s270_274 (|-->| g_s41_42 g_s6_7)) (= g_s271_275 (|-->| g_s41_42 g_s7_8)) (= g_s272_276 (|-->| g_s41_42 g_s38_39)) (= g_s273_277 (|-->| g_s41_42 INT)) (mem g_s274_278 g_s270_274) (= g_s274_278 (set_prod g_s41_42 (SET g_s46_47))) (mem g_s275_279 g_s271_275) (= g_s275_279 (set_prod g_s41_42 (SET g_s52_53))) (mem g_s276_280 g_s272_276) (mem g_s277_281 g_s273_277) (= g_s277_281 (set_prod g_s41_42 (SET e0))) (mem g_s278_282 g_s273_277) (= g_s278_282 (set_prod g_s41_42 (SET e207))) (= g_s279_283 (|-->| g_s42_43 g_s6_7)) (= g_s280_284 (|-->| g_s42_43 BOOL)) (= g_s281_285 (|-->| g_s42_43 g_s7_8)) (= g_s282_286 (|-->| g_s42_43 g_s40_41)) (= g_s283_287 (|-->| g_s42_43 g_s4_5)) (= g_s284_288 (|-->| g_s40_41 g_s7_8)) (= g_s285_289 (|-->| (dom g_s231_235) g_s6_7)) (mem g_s286_290 g_s279_283) (mem g_s287_291 g_s280_284) (mem g_s288_292 g_s281_285) (mem g_s289_293 g_s284_288) (= g_s289_293 (set_prod g_s40_41 (SET g_s52_53))) (= g_s290_294 (|-->| g_s38_39 g_s7_8)) (mem g_s291_295 g_s290_294) (= g_s291_295 (set_prod g_s38_39 (SET g_s52_53))) (mem g_s292_296 g_s285_289) (= g_s293_297 (|-->| (dom g_s233_237) g_s6_7)) (mem g_s294_298 g_s293_297) (= g_s295_299 (|-->| g_s39_40 g_s7_8)) (mem g_s296_300 g_s295_299) (= g_s288_292 (set_prod g_s42_43 (SET g_s52_53))) (mem g_s297_301 g_s282_286) (mem g_s298_302 g_s283_287) (= g_s298_302 (set_prod g_s42_43 (SET g_s60_60))) (= g_s299_303 (|-->| g_s43_44 g_s6_7)) (= g_s300_304 (|-->| g_s43_44 INT)) (= g_s301_305 (|-->| g_s43_44 BOOL)) (= g_s302_306 (|-->| g_s43_44 g_s41_42)) (= g_s303_307 (|-->| g_s43_44 g_s42_43)) (mem g_s304_308 g_s299_303) (mem g_s305_309 g_s300_304) (mem g_s306_310 g_s301_305) (= g_s306_310 (set_prod g_s43_44 (SET FALSE))) (mem g_s307_311 g_s302_306) (mem g_s308_312 g_s303_307) (= g_s309_313 (|-->| (dom g_s231_235) g_s42_43)) (mem g_s310_314 g_s309_313) (= g_s311_315 (|-->| (interval e88 g_s214_218) g_s43_44)) (mem g_s312_316 g_s311_315) (= g_s313_317 (|-->| (interval e88 g_s214_218) NAT)) (mem g_s314_318 g_s313_317) (= g_s315_319 (|-->| (dom g_s233_237) g_s41_42)) (mem g_s316_320 g_s315_319) (= g_s317_321 (|-->| (dom g_s235_239) g_s39_40)) (mem g_s318_322 g_s317_321)))
(define-fun |def_seext| () Bool (and (mem g_s319_323 BOOL) (=> (= g_s319_323 TRUE) (= g_s320_324 TRUE)) (mem g_s321_325 (|+->| g_s64_64 g_s225_229)) (mem g_s322_326 (|-->| (set_diff (dom g_s321_325) (SET (apply g_s87_90 e88))) g_s64_64)) (subset (ran g_s322_326) (dom g_s321_325)) (forall ((l_s323 U)) (=> (mem l_s323 (dom g_s322_326)) (not (= (apply g_s322_326 l_s323) l_s323)))) (mem g_s324_327 (|+->| g_s67_67 g_s223_227)) (=> (= g_s319_323 TRUE) (subset (ran g_s324_327) (ran g_s325_328))) (=> (= g_s319_323 FALSE) (= g_s324_327 empty)) (mem g_s326_329 (|-->| (dom g_s324_327) (dom g_s321_325))) (mem g_s327_330 (|+->| g_s73_73 g_s43_44)) (mem g_s327_330 (|+->| g_s73_73 (binary_union g_s228_232 (SET g_s229_233)))) (mem g_s328_331 (|+->| (dom g_s327_330) (dom g_s327_330))) (= g_s328_331 (inverse g_s328_331)) (forall ((l_s329 U)) (=> (mem l_s329 (dom g_s328_331)) (not (= (apply g_s328_331 l_s329) l_s329)))) (=> (= g_s319_323 TRUE) (mem (domain_restriction (dom g_s328_331) g_s327_330) (|+->| g_s73_73 (binary_union (dom (ran g_s330_332)) (ran (ran g_s330_332)))))) (=> (= g_s319_323 FALSE) (= g_s327_330 empty)) (mem g_s331_333 (|-->| (dom g_s327_330) g_s9_10)) (mem g_s332_334 (|-->| (dom g_s327_330) (dom g_s324_327))) (mem g_s333_335 BOOL) (subset g_s334_336 (dom g_s327_330)) (mem g_s335_337 (|+->| g_s79_79 g_s228_232)) (mem g_s336_338 (|>->| (dom g_s335_337) (dom g_s327_330))) (mem g_s337_339 (|-->| (dom g_s335_337) (dom g_s321_325))) (subset g_s338_340 (dom g_s324_327)) (=> (= g_s319_323 TRUE) (subset (ran g_s321_325) (dom g_s339_341))) (subset g_s340_342 g_s29_30) (subset g_s341_343 g_s29_30) (mem g_s342_344 (|+->| g_s64_64 g_s225_229)) (mem g_s343_345 (|+->| g_s67_67 (set_prod g_s29_30 g_s41_42))) (mem g_s344_346 (|+->| g_s73_73 g_s228_232)) (mem g_s345_347 (|+->| g_s33_34 g_s35_36)) (mem g_s346_348 (|+->| g_s33_34 g_s33_34)) (mem g_s347_349 (|+->| g_s73_73 g_s31_32)) (= (image (inverse g_s93_96) (dom g_s327_330)) (interval e88 (card (dom g_s327_330)))) (= (image (inverse g_s90_93) (dom g_s324_327)) (interval e88 (card (dom g_s324_327)))) (= (image (inverse g_s87_90) (dom g_s321_325)) (interval e88 (card (dom g_s321_325)))) (mem g_s348_350 (|+->| g_s70_70 NAT)) (mem g_s349_351 (|>+>| g_s65_65 g_s57_57)) (mem g_s350_352 (|+->| g_s225_229 g_s59_59)) (= g_s9_10 (SET (mapplet g_s11_12 g_s10_11))) (mem g_s326_329 (|+->| g_s67_67 g_s64_64)) (mem g_s328_331 (|+->| g_s73_73 g_s73_73)) (subset (ran g_s328_331) (dom g_s328_331)) (mem (inverse g_s328_331) (|+->| (dom g_s327_330) (dom g_s327_330))) (mem g_s328_331 (|+->| (dom g_s332_334) (dom g_s332_334))) (= (size g_s230_234) (card g_s215_219)) (= (size g_s235_239) (card g_s218_222))))
(define-fun |def_lprp| () Bool true)
(define-fun |def_inprp| () Bool true)
(define-fun |def_inext| () Bool true)
(define-fun |def_inv| () Bool  (mem g_s351_353 (|+->| (set_prod g_s57_57 g_s6_7) NAT)))
(define-fun |def_ass| () Bool true)
(define-fun |def_cst| () Bool true)
(define-fun |def_sets| () Bool true)
; PO group 0 
(assert |def_B definitions|)
(assert |def_ctx|)
(assert |def_cst|)
(assert |def_lprp|)
(assert |def_inprp|)
(assert |def_inext|)
(assert |def_seext|)
; PO 1 in group 0
(assert (not (mem empty (|+->| (set_prod g_s57_57 g_s6_7) NAT))))
(check-sat)
(exit)